% Generated by MiniZinc 2.9.5
% Solver library: /snap/minizinc/1222/share/minizinc/gecode
% Command line invocation: /snap/minizinc/1222/bin/minizinc -c --solver gecode Brown-05.mzn 

array [1..5] of float: X_INTRODUCED_5_ = [1.0,1.0,1.0,2.0,1.0];
array [1..5] of float: X_INTRODUCED_7_ = [1.0,1.0,2.0,1.0,1.0];
array [1..5] of float: X_INTRODUCED_9_ = [1.0,2.0,1.0,1.0,1.0];
array [1..5] of float: X_INTRODUCED_11_ = [2.0,1.0,1.0,1.0,1.0];
var -10.0..10.0: X_INTRODUCED_0_;
var -10.0..10.0: X_INTRODUCED_1_;
var -10.0..10.0: X_INTRODUCED_2_;
var -10.0..10.0: X_INTRODUCED_3_;
var -10.0..10.0: X_INTRODUCED_4_;
var -100.0..100.0: X_INTRODUCED_13_ ::var_is_introduced :: is_defined_var;
var -1000.0..1000.0: X_INTRODUCED_14_ ::var_is_introduced :: is_defined_var;
var -10000.0..10000.0: X_INTRODUCED_15_ ::var_is_introduced :: is_defined_var;
var 1.0..1.0: X_INTRODUCED_16_ ::var_is_introduced :: is_defined_var;
array [1..5] of var float: x:: output_array([1..5]) = [X_INTRODUCED_0_,X_INTRODUCED_1_,X_INTRODUCED_2_,X_INTRODUCED_3_,X_INTRODUCED_4_];
constraint float_lin_eq(X_INTRODUCED_5_,[X_INTRODUCED_3_,X_INTRODUCED_2_,X_INTRODUCED_1_,X_INTRODUCED_0_,X_INTRODUCED_4_],6.0);
constraint float_lin_eq(X_INTRODUCED_7_,[X_INTRODUCED_3_,X_INTRODUCED_2_,X_INTRODUCED_1_,X_INTRODUCED_0_,X_INTRODUCED_4_],6.0);
constraint float_lin_eq(X_INTRODUCED_9_,[X_INTRODUCED_3_,X_INTRODUCED_2_,X_INTRODUCED_1_,X_INTRODUCED_0_,X_INTRODUCED_4_],6.0);
constraint float_lin_eq(X_INTRODUCED_11_,[X_INTRODUCED_3_,X_INTRODUCED_2_,X_INTRODUCED_1_,X_INTRODUCED_0_,X_INTRODUCED_4_],6.0);
constraint float_times(X_INTRODUCED_0_,X_INTRODUCED_1_,X_INTRODUCED_13_):: defines_var(X_INTRODUCED_13_);
constraint float_times(X_INTRODUCED_13_,X_INTRODUCED_2_,X_INTRODUCED_14_):: defines_var(X_INTRODUCED_14_);
constraint float_times(X_INTRODUCED_14_,X_INTRODUCED_3_,X_INTRODUCED_15_):: defines_var(X_INTRODUCED_15_);
constraint float_times(X_INTRODUCED_15_,X_INTRODUCED_4_,X_INTRODUCED_16_):: defines_var(X_INTRODUCED_16_);
solve  satisfy;
